NAME : traveling-santa-2018-prime-paths.30433.tour
COMMENT : Length = 30433
COMMENT : Found by LKH [Keld Helsgaun] Sun Jun 12 19:59:29 2022
TYPE : TOUR
DIMENSION : 100
TOUR_SECTION
1
56
91
49
17
88
40
7
66
99
72
97
84
41
54
27
28
11
14
25
38
39
31
85
20
64
15
32
94
21
12
74
76
63
34
48
69
89
37
30
9
46
60
44
96
80
8
100
18
73
35
70
71
10
83
53
2
58
6
68
50
61
47
4
86
67
13
52
3
57
19
95
29
42
59
5
98
36
26
87
62
82
93
16
22
90
33
92
23
51
45
79
43
81
65
78
24
77
55
75
-1
EOF
